(declare-const delta_k Int)
(declare-const delta_tmp Int)
(declare-const delta_j Int)
(assert (exists
         ((|tmp'?1| Int) (|j'?2| Int) (phi_j?3 Int) (phi_k?4 Int)
            (|S1,0?5| Real) (|k'?6| Int) (KSUM1?7 Int) (|K1,0?8| Int)
            (K?9 Int) (|k'?10| Int) (havoc?11 Int) (tmp?12 Int) (k?13 Int)
            (j?14 Int) (i?15 Int) (n?16 Int) (m?17 Int))
         (and (or (and (<= (- j?14) 0) (<= (- i?15) 0) (< (- n?16) 0)
                         (< (+ (- m?17) j?14) 0)
                         (or (< havoc?11 0) (< 0 havoc?11)) (<= (- j?14) 0)
                         (<= (- K?9) 0) (<= (- |K1,0?8|) 0)
                         (= (+ |K1,0?8| (- K?9)) 0)
                         (<= (+ KSUM1?7 (- K?9)) 0)
                         (= (+ (- |S1,0?5|) |k'?6| (- |K1,0?8|)) 0)
                         (= (+ (- KSUM1?7) |K1,0?8|) 0) (= |S1,0?5| 0)
                         (or (and (= K?9 0) (= (- |k'?6|) 0))
                               (and (<= (+ (- K?9) 1) 0) (<= (- j?14) 0)
                                      (<= (+ |k'?6| (- j?14) -1) 0)
                                      (<= (+ (- |k'?6|) 1) 0)))
                         (= (+ |k'?6| (- K?9)) 0) (<= (- K?9) 0)
                         (<= (- |k'?6|) 0) (< (+ (- j?14) -1) 0)
                         (<= (+ (- |k'?6|) j?14 1) 0)
                         (= (+ (- phi_j?3) j?14 1) 0)
                         (= (+ (- phi_k?4) |k'?6|) 0))
                    (and (<= (- j?14) 0) (<= (- i?15) 0) (< (- n?16) 0)
                           (< (+ (- m?17) j?14) 0) (= havoc?11 0)
                           (< (+ (- n?16) i?15 (- j?14) -5) 0)
                           (= (+ (- phi_j?3) j?14 2) 0)
                           (= (+ k?13 (- phi_k?4)) 0)))
                (= (+ |tmp'?1| (- havoc?11)) 0) (= (+ |k'?10| (- phi_k?4)) 0)
                (= (+ |j'?2| (- phi_j?3)) 0) (= delta_j (+ |j'?2| (- j?14)))
                (= delta_k (+ |k'?10| (- k?13)))
                (= delta_tmp (+ |tmp'?1| (- tmp?12))))))
(check-sat)
